c read Graph
c width = 69
c time = 646 ms
c width = 4
c time = 854 ms
c width = 4
c time = 4109 ms
s td 76 5 80
b 1 1 2 21
b 2 2 3 21 22
b 3 18 19 39 40
b 4 3 21 22 41
b 5 18 39 40 60
b 6 41 42 62 63
b 7 59 60 78 79
b 8 3 4 5 24
b 9 5 6 7 26
b 10 7 8 9 28
b 11 9 10 11 30
b 12 11 12 13 32
b 13 13 14 15 34
b 14 15 16 17 36
b 15 3 22 23 41 42
b 16 3 23 41 42 63
b 17 3 23 42 43 63
b 18 3 23 24 43 63
b 19 3 5 24 43 63
b 20 5 24 43 44 63
b 21 5 24 25 44 63
b 22 5 25 44 63 64
b 23 5 25 44 45 64
b 24 5 25 26 45 64
b 25 5 7 26 45 64
b 26 7 26 45 64 65
b 27 7 26 45 46 65
b 28 7 26 27 46 65
b 29 7 27 46 65 66
b 30 7 27 46 47 66
b 31 7 27 28 47 66
b 32 7 9 28 47 66
b 33 9 28 47 66 67
b 34 9 28 47 48 67
b 35 9 28 29 48 67
b 36 9 29 48 67 68
b 37 9 29 48 49 68
b 38 9 29 30 49 68
b 39 9 11 30 49 68
b 40 11 30 49 68 69
b 41 11 30 49 50 69
b 42 11 30 31 50 69
b 43 11 31 50 69 70
b 44 11 31 50 51 70
b 45 11 31 32 51 70
b 46 11 13 32 51 70
b 47 13 32 51 70 71
b 48 13 32 51 52 71
b 49 13 32 33 52 71
b 50 13 33 52 71 72
b 51 13 33 52 53 72
b 52 13 33 34 53 72
b 53 13 15 34 53 72
b 54 15 34 53 72 73
b 55 15 34 53 54 73
b 56 15 34 35 54 73
b 57 15 35 54 73 74
b 58 15 35 54 55 74
b 59 15 35 36 55 74
b 60 15 17 36 55 74
b 61 17 36 55 74 75
b 62 17 36 55 56 75
b 63 17 36 37 56 75
b 64 17 37 56 75 76
b 65 17 37 56 57 76
b 66 17 37 57 76 77
b 67 17 18 37 57 77
b 68 18 37 38 57 77
b 69 18 38 57 58 77
b 70 18 38 39 58 77
b 71 18 39 58 60 77
b 72 39 58 59 60 77
b 73 58 59 60 77 78
b 74 60 79 80
b 75 41 61 62
b 76 19 20 40
1 2
2 4
3 76
3 5
4 15
5 71
6 75
6 16
7 74
7 73
8 19
9 25
10 32
11 39
12 46
13 53
14 60
15 16
16 17
17 18
18 19
19 20
20 21
21 22
22 23
23 24
24 25
25 26
26 27
27 28
28 29
29 30
30 31
31 32
32 33
33 34
34 35
35 36
36 37
37 38
38 39
39 40
40 41
41 42
42 43
43 44
44 45
45 46
46 47
47 48
48 49
49 50
50 51
51 52
52 53
53 54
54 55
55 56
56 57
57 58
58 59
59 60
60 61
61 62
62 63
63 64
64 65
65 66
66 67
67 68
68 69
69 70
70 71
71 72
72 73
